22
2 51 10 
2 48 34 
3 11 58 9 
2 31 7 
2 8 19 
3 53 4 5 
3 35 15 12 
3 2 39 20 
3 47 37 26 
3 32 43 23 
3 44 3 46 
3 49 14 56 
3 16 38 27 
2 22 1 
3 17 60 59 
3 21 45 28 
3 25 33 41 
3 42 24 6 
2 13 54 
3 40 57 36 
3 18 52 29 
3 55 50 30 
